inst_name = "MaxCut_16" 
n = 16
W = [0 841 814 936 697 963 972 977 666 696 668 893 688 889 714 977; 0 0 618 592 942 861 843 724 574 504 549 872 855 612 537 951; 0 0 0 852 598 663 842 646 954 911 574 711 596 996 713 765; 0 0 0 0 541 941 916 899 802 745 870 506 737 550 868 567; 0 0 0 0 0 964 784 991 624 898 557 775 770 642 870 723; 0 0 0 0 0 0 555 502 825 692 825 945 570 544 539 641; 0 0 0 0 0 0 0 978 626 705 656 916 617 716 533 833; 0 0 0 0 0 0 0 0 728 534 622 700 799 681 591 593; 0 0 0 0 0 0 0 0 0 853 954 654 825 520 560 503; 0 0 0 0 0 0 0 0 0 0 992 510 898 818 713 691; 0 0 0 0 0 0 0 0 0 0 0 520 535 892 785 619; 0 0 0 0 0 0 0 0 0 0 0 0 913 919 725 985; 0 0 0 0 0 0 0 0 0 0 0 0 0 827 919 584; 0 0 0 0 0 0 0 0 0 0 0 0 0 0 753 957; 0 0 0 0 0 0 0 0 0 0 0 0 0 0 0 947; 0 0 0 0 0 0 0 0 0 0 0 0 0 0 0 0]
W_bis = [0 601 586 511 547 508 516 516 631 722 538 514 504 609 653 519; 0 0 0 674 510 565 506 512 769 991 687 625 570 703 580 512; 0 0 0 0 0 746 648 554 506 561 684 723 605 502 627 560; 0 0 0 0 0 0 0 557 687 638 551 864 743 683 568 649; 0 0 0 0 0 0 0 0 0 597 673 541 582 563 596 663; 0 0 0 0 0 0 0 0 0 0 0 526 922 800 673 609; 0 0 0 0 0 0 0 0 0 0 0 0 0 768 885 652; 0 0 0 0 0 0 0 0 0 0 0 0 0 0 0 724; 0 0 0 0 0 0 0 0 0 0 0 0 0 0 0 0; 0 0 0 0 0 0 0 0 0 0 0 0 0 0 0 0; 0 0 0 0 0 0 0 0 0 0 0 0 0 0 0 0; 0 0 0 0 0 0 0 0 0 0 0 0 0 0 0 0; 0 0 0 0 0 0 0 0 0 0 0 0 0 0 0 0; 0 0 0 0 0 0 0 0 0 0 0 0 0 0 0 0; 0 0 0 0 0 0 0 0 0 0 0 0 0 0 0 0; 0 0 0 0 0 0 0 0 0 0 0 0 0 0 0 0]
